(declare-const BAV1 Bool)
(declare-const BAV2 Bool)
(declare-const BAV3 Bool)
(declare-const BAV4 Bool)
(declare-const GEN12 Real)
(declare-const GEN11 Real)
(declare-const GEN10 Real)
(declare-const GEN9 Real)
(declare-const GEN8 Real)
(declare-const GEN7 Real)
(declare-const GEN6 Real)
(declare-const GEN5 Real)
(declare-const GEN4 Real)
(declare-const GEN3 Real)
(declare-const GEN2 Real)
(declare-const GEN1 Real)
(declare-const a Real)
(declare-const b Real)
(push)
(assert (>= (+ (^ a GEN1) (* (- GEN2) a)) (- GEN3)))
(apply factor)
(pop)
(push)
(assert (> (+ (^ a GEN4) (* (- GEN5) a)) (- GEN6)))
(apply factor)
(pop)
(push)
(assert (< (+ (^ a GEN7) (* (- GEN8) a)) (- GEN9)))
(apply factor)
(pop)
(push)
(assert (<= (+ (^ a GEN10) (* (- GEN11) a)) (- GEN12)))
(apply factor)
(pop)
(assert (= BAV1 (>= (+ (^ a GEN1) (* (- GEN2) a)) (- GEN3))))
(assert (= BAV2 (> (+ (^ a GEN4) (* (- GEN5) a)) (- GEN6))))
(assert (= BAV3 (< (+ (^ a GEN7) (* (- GEN8) a)) (- GEN9))))
(assert (= BAV4 (<= (+ (^ a GEN10) (* (- GEN11) a)) (- GEN12))))